<number of tasks>
89

<cycle time>
83

<task times>
1 28
2 17
3 7
4 10
5 12
6 16
7 13
8 8
9 13
10 24
11 16
12 24
13 12
14 20
15 22
16 22
17 22
18 47
19 6
20 12
21 6
22 22
23 7
24 14
25 68
26 15
27 8
28 74
29 32
30 11
31 18
32 15
33 42
34 27
35 38
36 38
37 26
38 35
39 31
40 8
41 14
42 8
43 8
44 8
45 17
46 7
47 19
48 12
49 24
50 26
51 22
52 14
53 27
54 60
55 4
56 2
57 1
58 9
59 5
60 6
61 7
62 12
63 2
64 11
65 14
66 6
67 21
68 14
69 1
70 6
71 21
72 11
73 14
74 28
75 12
76 11
77 30
78 22
79 14
80 31
81 18
82 16
83 7
84 38
85 8
86 31
87 29
88 12
89 18

<precedence relations>
1,2
2,3
3,4
4,5
4,6
4,7
4,8
4,9
5,10
6,11
7,12
8,18
9,18
10,14
11,12
12,13
13,14
14,15
14,16
15,17
16,54
17,18
18,19
18,20
19,22
20,21
20,28
21,54
22,23
23,24
24,25
25,26
25,27
25,29
26,37
27,33
28,29
29,31
30,54
31,32
32,33
33,34
34,35
35,36
35,37
36,38
37,38
38,39
39,40
39,41
39,42
39,43
40,44
41,53
42,53
43,45
44,52
45,46
46,47
47,48
47,49
49,50
50,51
51,52
52,53
53,68
53,69
53,70
53,71
54,55
55,56
56,57
57,58
57,59
57,60
57,61
57,62
57,63
57,64
57,65
57,66
58,67
59,67
60,67
61,67
62,67
63,67
64,67
65,67
66,67
67,73
68,72
69,72
70,72
71,73
72,78
72,80
73,74
74,75
74,76
75,77
76,81
77,78
78,79
79,81
80,81
81,82
81,84
81,85
82,83
83,86
84,86
85,86
86,87
87,88
87,89

<setup times forward>
1,30:4
2,30:4
3,30:4
4,5:7
4,7:7
4,8:3
4,9:3
4,30:4
5,6:7
5,8:4
5,9:10
5,10:10
5,30:3
6,5:7
6,7:7
6,8:3
6,9:3
6,10:3
6,11:7
6,30:4
7,6:7
7,8:4
7,9:10
7,10:10
7,30:3
8,5:4
8,6:3
8,7:4
8,9:6
8,10:6
8,11:4
8,12:4
8,13:4
8,14:6
8,15:6
8,16:1
8,30:1
9,5:10
9,6:3
9,7:10
9,8:6
9,11:10
9,12:10
9,13:10
9,16:5
9,17:6
9,18:6
9,30:7
10,6:3
10,7:10
10,8:6
10,11:10
10,12:10
10,13:10
10,30:7
11,8:4
11,9:10
11,10:10
11,30:3
12,8:4
12,9:10
12,10:10
12,30:3
13,8:4
13,9:10
13,10:10
13,14:10
13,30:3
14,8:6
14,16:5
14,30:7
15,8:6
15,16:5
15,17:6
15,30:7
16,8:1
16,9:5
16,15:5
16,17:1
16,18:1
16,19:1
16,25:6
16,26:8
16,27:6
16,28:2
16,29:8
16,30:2
16,31:8
16,32:8
16,33:2
16,34:2
16,35:5
16,36:5
16,37:10
16,38:10
16,39:3
16,41:11
16,42:3
16,43:3
16,45:3
16,46:3
16,47:3
16,48:3
16,49:3
16,50:3
16,51:3
16,52:10
16,53:10
16,68:10
16,69:10
16,70:5
16,71:5
16,72:5
16,80:5
17,9:6
17,16:1
17,30:1
18,16:1
18,20:1
18,30:1
19,16:1
19,20:1
19,21:1
19,22:1
19,28:3
19,30:1
19,54:1
19,55:1
19,56:1
19,57:1
19,58:12
19,59:12
19,60:11
19,61:12
19,62:12
19,63:2
19,64:12
19,65:12
19,66:12
19,67:11
20,19:1
20,25:6
20,26:8
20,27:6
20,28:2
20,30:2
21,19:1
21,25:6
21,26:8
21,27:6
21,28:2
21,29:8
21,30:2
21,31:8
21,32:8
21,33:2
21,34:2
21,35:5
21,36:5
21,37:10
21,38:10
21,39:3
21,41:11
21,42:3
21,43:3
21,45:3
21,46:3
21,47:3
21,48:3
21,49:3
21,50:3
21,51:3
21,52:10
21,53:10
21,68:10
21,69:10
21,70:5
21,71:5
21,72:5
21,80:5
22,28:2
22,30:2
22,58:11
22,59:11
22,60:10
22,61:11
22,62:11
22,63:3
22,64:11
22,65:11
22,66:11
22,67:10
23,28:2
23,30:2
23,58:11
23,59:11
23,60:10
23,61:11
23,62:11
23,63:3
23,64:11
23,65:11
23,66:11
23,67:10
24,25:6
24,28:2
24,30:2
24,58:11
24,59:11
24,60:10
24,61:11
24,62:11
24,63:3
24,64:11
24,65:11
24,66:11
24,67:10
25,16:6
25,20:6
25,21:6
25,26:2
25,28:4
25,29:2
25,30:8
25,54:6
25,55:6
25,56:6
25,57:6
25,58:5
25,59:5
25,60:4
25,61:5
25,62:5
25,63:9
25,64:5
25,65:5
25,66:5
25,67:4
26,16:8
26,20:8
26,21:8
26,27:2
26,28:6
26,30:10
26,33:10
26,34:10
26,35:3
26,36:3
26,37:2
26,54:8
26,55:8
26,56:8
26,57:8
26,58:3
26,59:3
26,60:2
26,61:3
26,62:3
26,63:11
26,64:3
26,65:3
26,66:3
26,67:2
27,16:6
27,20:6
27,21:6
27,26:2
27,28:4
27,29:2
27,30:8
27,31:2
27,32:2
27,33:8
27,54:6
27,55:6
27,56:6
27,57:6
27,58:5
27,59:5
27,60:4
27,61:5
27,62:5
27,63:9
27,64:5
27,65:5
27,66:5
27,67:4
28,16:2
28,19:3
28,21:2
28,22:2
28,23:2
28,24:2
28,25:4
28,26:6
28,27:4
28,29:6
28,30:4
28,54:2
28,55:2
28,56:2
28,57:2
28,58:9
28,59:9
28,60:8
28,61:9
28,62:9
28,63:5
28,64:9
28,65:9
28,66:9
28,67:8
29,16:8
29,21:8
29,27:2
29,30:10
29,54:8
29,55:8
29,56:8
29,57:8
29,58:3
29,59:3
29,60:2
29,61:3
29,62:3
29,63:11
29,64:3
29,65:3
29,66:3
29,67:2
30,1:4
30,2:4
30,3:4
30,4:4
30,5:3
30,6:4
30,7:3
30,8:1
30,9:7
30,10:7
30,11:3
30,12:3
30,13:3
30,14:7
30,15:7
30,16:2
30,17:1
30,18:1
30,19:1
30,20:2
30,21:2
30,22:2
30,23:2
30,24:2
30,25:8
30,26:10
30,27:8
30,28:4
30,29:10
30,31:10
30,32:10
30,35:7
30,36:7
30,37:12
30,38:12
30,39:5
30,40:2
30,41:13
30,42:1
30,43:5
30,44:2
30,45:5
30,46:5
30,47:5
30,48:1
30,49:1
30,50:1
30,51:1
30,52:12
30,53:12
30,54:2
30,68:12
30,69:12
30,70:3
30,71:3
30,72:3
30,80:3
31,16:8
31,21:8
31,27:2
31,30:10
31,54:8
31,55:8
31,56:8
31,57:8
31,58:3
31,59:3
31,60:2
31,61:3
31,62:3
31,63:11
31,64:3
31,65:3
31,66:3
31,67:2
32,16:8
32,21:8
32,27:2
32,30:10
32,33:10
32,54:8
32,55:8
32,56:8
32,57:8
32,58:3
32,59:3
32,60:2
32,61:3
32,62:3
32,63:11
32,64:3
32,65:3
32,66:3
32,67:2
33,16:2
33,21:2
33,26:10
33,54:2
33,55:2
33,56:2
33,57:2
33,58:13
33,59:13
33,60:12
33,61:13
33,62:13
33,63:1
33,64:13
33,65:13
33,66:13
33,67:12
34,16:2
34,21:2
34,26:10
34,35:7
34,54:2
34,55:2
34,56:2
34,57:2
34,58:13
34,59:13
34,60:12
34,61:13
34,62:13
34,63:1
34,64:13
34,65:13
34,66:13
34,67:12
35,16:5
35,21:5
35,26:3
35,30:7
35,37:5
35,54:5
35,55:5
35,56:5
35,57:5
35,58:6
35,59:6
35,60:5
35,61:6
35,62:6
35,63:8
35,64:6
35,65:6
35,66:6
35,67:5
36,16:5
36,21:5
36,26:3
36,30:7
36,37:5
36,38:5
36,54:5
36,55:5
36,56:5
36,57:5
36,58:6
36,59:6
36,60:5
36,61:6
36,62:6
36,63:8
36,64:6
36,65:6
36,66:6
36,67:5
37,16:10
37,21:10
37,30:12
37,36:5
37,54:10
37,55:10
37,56:10
37,57:10
37,58:1
37,59:1
37,61:1
37,62:1
37,63:13
37,64:1
37,65:1
37,66:1
38,16:10
38,21:10
38,30:12
38,39:7
38,54:10
38,55:10
38,56:10
38,57:10
38,58:1
38,59:1
38,61:1
38,62:1
38,63:13
38,64:1
38,65:1
38,66:1
39,16:3
39,21:3
39,30:5
39,40:3
39,41:8
39,42:6
39,54:3
39,55:3
39,56:3
39,57:3
39,58:8
39,59:8
39,60:7
39,61:8
39,62:8
39,63:6
39,64:8
39,65:8
39,66:8
39,67:7
40,30:2
40,41:11
40,42:3
40,43:3
40,45:3
40,46:3
40,47:3
40,48:3
40,49:3
40,50:3
40,51:3
40,58:11
40,59:11
40,60:10
40,61:11
40,62:11
40,63:3
40,64:11
40,65:11
40,66:11
40,67:10
41,16:11
41,21:11
41,30:13
41,40:11
41,42:14
41,43:8
41,44:11
41,45:8
41,46:8
41,47:8
41,48:14
41,49:14
41,50:14
41,51:14
41,52:1
41,53:1
41,54:11
41,55:11
41,56:11
41,57:11
41,60:1
41,63:14
41,67:1
42,16:3
42,21:3
42,30:1
42,40:3
42,41:14
42,43:6
42,44:3
42,45:6
42,46:6
42,47:6
42,52:13
42,53:13
42,54:3
42,55:3
42,56:3
42,57:3
42,58:14
42,59:14
42,60:13
42,61:14
42,62:14
42,64:14
42,65:14
42,66:14
42,67:13
43,16:3
43,21:3
43,30:5
43,40:3
43,41:8
43,42:6
43,44:3
43,54:3
43,55:3
43,56:3
43,57:3
43,58:8
43,59:8
43,60:7
43,61:8
43,62:8
43,63:6
43,64:8
43,65:8
43,66:8
43,67:7
44,30:2
44,41:11
44,42:3
44,43:3
44,45:3
44,46:3
44,47:3
44,48:3
44,49:3
44,50:3
44,51:3
44,52:10
44,58:11
44,59:11
44,60:10
44,61:11
44,62:11
44,63:3
44,64:11
44,65:11
44,66:11
44,67:10
45,16:3
45,21:3
45,30:5
45,40:3
45,41:8
45,42:6
45,44:3
45,54:3
45,55:3
45,56:3
45,57:3
45,58:8
45,59:8
45,60:7
45,61:8
45,62:8
45,63:6
45,64:8
45,65:8
45,66:8
45,67:7
46,16:3
46,21:3
46,30:5
46,40:3
46,41:8
46,42:6
46,44:3
46,54:3
46,55:3
46,56:3
46,57:3
46,58:8
46,59:8
46,60:7
46,61:8
46,62:8
46,63:6
46,64:8
46,65:8
46,66:8
46,67:7
47,16:3
47,21:3
47,30:5
47,40:3
47,41:8
47,42:6
47,44:3
47,48:6
47,49:6
47,54:3
47,55:3
47,56:3
47,57:3
47,58:8
47,59:8
47,60:7
47,61:8
47,62:8
47,63:6
47,64:8
47,65:8
47,66:8
47,67:7
48,16:3
48,21:3
48,30:1
48,40:3
48,41:14
48,44:3
48,52:13
48,53:13
48,54:3
48,55:3
48,56:3
48,57:3
48,58:14
48,59:14
48,60:13
48,61:14
48,62:14
48,64:14
48,65:14
48,66:14
48,67:13
48,68:13
48,69:13
48,70:2
48,71:2
48,72:2
48,73:2
48,74:7
48,75:7
48,76:7
48,77:7
48,78:3
48,79:3
48,80:2
48,81:3
48,82:3
48,85:3
49,16:3
49,21:3
49,30:1
49,40:3
49,41:14
49,44:3
49,54:3
49,55:3
49,56:3
49,57:3
49,58:14
49,59:14
49,60:13
49,61:14
49,62:14
49,64:14
49,65:14
49,66:14
49,67:13
50,16:3
50,21:3
50,30:1
50,40:3
50,41:14
50,44:3
50,54:3
50,55:3
50,56:3
50,57:3
50,58:14
50,59:14
50,60:13
50,61:14
50,62:14
50,64:14
50,65:14
50,66:14
50,67:13
51,16:3
51,21:3
51,30:1
51,40:3
51,41:14
51,44:3
51,52:13
51,54:3
51,55:3
51,56:3
51,57:3
51,58:14
51,59:14
51,60:13
51,61:14
51,62:14
51,64:14
51,65:14
51,66:14
51,67:13
52,16:10
52,21:10
52,30:12
52,41:1
52,42:13
52,48:13
52,54:10
52,55:10
52,56:10
52,57:10
52,58:1
52,59:1
52,61:1
52,62:1
52,63:13
52,64:1
52,65:1
52,66:1
53,16:10
53,21:10
53,30:12
53,48:13
53,54:10
53,55:10
53,56:10
53,57:10
53,58:1
53,59:1
53,61:1
53,62:1
53,63:13
53,64:1
53,65:1
53,66:1
53,70:15
53,71:15
54,19:1
54,25:6
54,26:8
54,27:6
54,28:2
54,29:8
54,31:8
54,32:8
54,33:2
54,34:2
54,35:5
54,36:5
54,37:10
54,38:10
54,39:3
54,41:11
54,42:3
54,43:3
54,45:3
54,46:3
54,47:3
54,48:3
54,49:3
54,50:3
54,51:3
54,52:10
54,53:10
54,68:10
54,69:10
54,70:5
54,71:5
54,72:5
54,80:5
55,19:1
55,25:6
55,26:8
55,27:6
55,28:2
55,29:8
55,31:8
55,32:8
55,33:2
55,34:2
55,35:5
55,36:5
55,37:10
55,38:10
55,39:3
55,41:11
55,42:3
55,43:3
55,45:3
55,46:3
55,47:3
55,48:3
55,49:3
55,50:3
55,51:3
55,52:10
55,53:10
55,68:10
55,69:10
55,70:5
55,71:5
55,72:5
55,80:5
56,19:1
56,25:6
56,26:8
56,27:6
56,28:2
56,29:8
56,31:8
56,32:8
56,33:2
56,34:2
56,35:5
56,36:5
56,37:10
56,38:10
56,39:3
56,41:11
56,42:3
56,43:3
56,45:3
56,46:3
56,47:3
56,48:3
56,49:3
56,50:3
56,51:3
56,52:10
56,53:10
56,68:10
56,69:10
56,70:5
56,71:5
56,72:5
56,80:5
57,19:1
57,25:6
57,26:8
57,27:6
57,28:2
57,29:8
57,31:8
57,32:8
57,33:2
57,34:2
57,35:5
57,36:5
57,37:10
57,38:10
57,39:3
57,41:11
57,42:3
57,43:3
57,45:3
57,46:3
57,47:3
57,48:3
57,49:3
57,50:3
57,51:3
57,52:10
57,53:10
57,58:11
57,59:11
57,60:10
57,61:11
57,62:11
57,63:3
57,64:11
57,65:11
57,66:11
57,68:10
57,69:10
57,70:5
57,71:5
57,72:5
57,80:5
58,19:12
58,22:11
58,23:11
58,24:11
58,25:5
58,26:3
58,27:5
58,28:9
58,29:3
58,31:3
58,32:3
58,33:13
58,34:13
58,35:6
58,36:6
58,37:1
58,38:1
58,39:8
58,40:11
58,42:14
58,43:8
58,44:11
58,45:8
58,46:8
58,47:8
58,48:14
58,49:14
58,50:14
58,51:14
58,52:1
58,53:1
58,60:1
58,63:14
58,67:1
58,68:1
58,69:1
58,70:16
58,71:16
58,72:16
58,80:16
59,19:12
59,22:11
59,23:11
59,24:11
59,25:5
59,26:3
59,27:5
59,28:9
59,29:3
59,31:3
59,32:3
59,33:13
59,34:13
59,35:6
59,36:6
59,37:1
59,38:1
59,39:8
59,40:11
59,42:14
59,43:8
59,44:11
59,45:8
59,46:8
59,47:8
59,48:14
59,49:14
59,50:14
59,51:14
59,52:1
59,53:1
59,60:1
59,63:14
59,67:1
59,68:1
59,69:1
59,70:16
59,71:16
59,72:16
59,80:16
60,19:11
60,22:10
60,23:10
60,24:10
60,25:4
60,26:2
60,27:4
60,28:8
60,29:2
60,31:2
60,32:2
60,33:12
60,34:12
60,35:5
60,36:5
60,39:7
60,40:10
60,41:1
60,42:13
60,43:7
60,44:10
60,45:7
60,46:7
60,47:7
60,48:13
60,49:13
60,50:13
60,51:13
60,58:1
60,59:1
60,61:1
60,62:1
60,63:13
60,64:1
60,65:1
60,66:1
60,70:15
60,71:15
60,72:15
60,80:15
61,19:12
61,22:11
61,23:11
61,24:11
61,25:5
61,26:3
61,27:5
61,28:9
61,29:3
61,31:3
61,32:3
61,33:13
61,34:13
61,35:6
61,36:6
61,37:1
61,38:1
61,39:8
61,40:11
61,42:14
61,43:8
61,44:11
61,45:8
61,46:8
61,47:8
61,48:14
61,49:14
61,50:14
61,51:14
61,52:1
61,53:1
61,60:1
61,63:14
61,67:1
61,68:1
61,69:1
61,70:16
61,71:16
61,72:16
61,80:16
62,19:12
62,22:11
62,23:11
62,24:11
62,25:5
62,26:3
62,27:5
62,28:9
62,29:3
62,31:3
62,32:3
62,33:13
62,34:13
62,35:6
62,36:6
62,37:1
62,38:1
62,39:8
62,40:11
62,42:14
62,43:8
62,44:11
62,45:8
62,46:8
62,47:8
62,48:14
62,49:14
62,50:14
62,51:14
62,52:1
62,53:1
62,60:1
62,63:14
62,67:1
62,68:1
62,69:1
62,70:16
62,71:16
62,72:16
62,80:16
63,19:2
63,22:3
63,23:3
63,24:3
63,25:9
63,26:11
63,27:9
63,28:5
63,29:11
63,31:11
63,32:11
63,33:1
63,34:1
63,35:8
63,36:8
63,37:13
63,38:13
63,39:6
63,40:3
63,41:14
63,43:6
63,44:3
63,45:6
63,46:6
63,47:6
63,52:13
63,53:13
63,58:14
63,59:14
63,60:13
63,61:14
63,62:14
63,64:14
63,65:14
63,66:14
63,67:13
63,68:13
63,69:13
63,70:2
63,71:2
63,72:2
63,80:2
64,19:12
64,22:11
64,23:11
64,24:11
64,25:5
64,26:3
64,27:5
64,28:9
64,29:3
64,31:3
64,32:3
64,33:13
64,34:13
64,35:6
64,36:6
64,37:1
64,38:1
64,39:8
64,40:11
64,42:14
64,43:8
64,44:11
64,45:8
64,46:8
64,47:8
64,48:14
64,49:14
64,50:14
64,51:14
64,52:1
64,53:1
64,60:1
64,63:14
64,67:1
64,68:1
64,69:1
64,70:16
64,71:16
64,72:16
64,80:16
65,19:12
65,22:11
65,23:11
65,24:11
65,25:5
65,26:3
65,27:5
65,28:9
65,29:3
65,31:3
65,32:3
65,33:13
65,34:13
65,35:6
65,36:6
65,37:1
65,38:1
65,39:8
65,40:11
65,42:14
65,43:8
65,44:11
65,45:8
65,46:8
65,47:8
65,48:14
65,49:14
65,50:14
65,51:14
65,52:1
65,53:1
65,60:1
65,63:14
65,67:1
65,68:1
65,69:1
65,70:16
65,71:16
65,72:16
65,80:16
66,19:12
66,22:11
66,23:11
66,24:11
66,25:5
66,26:3
66,27:5
66,28:9
66,29:3
66,31:3
66,32:3
66,33:13
66,34:13
66,35:6
66,36:6
66,37:1
66,38:1
66,39:8
66,40:11
66,42:14
66,43:8
66,44:11
66,45:8
66,46:8
66,47:8
66,48:14
66,49:14
66,50:14
66,51:14
66,52:1
66,53:1
66,60:1
66,63:14
66,67:1
66,68:1
66,69:1
66,70:16
66,71:16
66,72:16
66,80:16
67,19:11
67,22:10
67,23:10
67,24:10
67,25:4
67,26:2
67,27:4
67,28:8
67,29:2
67,31:2
67,32:2
67,33:12
67,34:12
67,35:5
67,36:5
67,39:7
67,40:10
67,41:1
67,42:13
67,43:7
67,44:10
67,45:7
67,46:7
67,47:7
67,48:13
67,49:13
67,50:13
67,51:13
67,70:15
67,71:15
67,72:15
67,73:15
67,80:15
68,16:10
68,21:10
68,30:12
68,48:13
68,54:10
68,55:10
68,56:10
68,57:10
68,58:1
68,59:1
68,61:1
68,62:1
68,63:13
68,64:1
68,65:1
68,66:1
68,70:15
68,71:15
68,72:15
68,73:15
68,74:6
68,75:6
68,76:6
68,77:6
69,16:10
69,21:10
69,30:12
69,48:13
69,54:10
69,55:10
69,56:10
69,57:10
69,58:1
69,59:1
69,61:1
69,62:1
69,63:13
69,64:1
69,65:1
69,66:1
69,70:15
69,71:15
69,72:15
69,73:15
69,74:6
69,75:6
69,76:6
69,77:6
70,16:5
70,21:5
70,30:3
70,48:2
70,54:5
70,55:5
70,56:5
70,57:5
70,58:16
70,59:16
70,60:15
70,61:16
70,62:16
70,63:2
70,64:16
70,65:16
70,66:16
70,67:15
70,68:15
70,69:15
70,74:9
70,75:9
70,76:9
70,77:9
71,16:5
71,21:5
71,30:3
71,48:2
71,54:5
71,55:5
71,56:5
71,57:5
71,58:16
71,59:16
71,60:15
71,61:16
71,62:16
71,63:2
71,64:16
71,65:16
71,66:16
71,67:15
71,68:15
71,69:15
72,16:5
72,21:5
72,30:3
72,48:2
72,54:5
72,55:5
72,56:5
72,57:5
72,58:16
72,59:16
72,60:15
72,61:16
72,62:16
72,63:2
72,64:16
72,65:16
72,66:16
72,67:15
72,74:9
72,75:9
72,76:9
72,77:9
72,78:5
73,48:2
73,68:15
73,69:15
73,74:9
74,48:7
74,68:6
74,69:6
74,70:9
74,72:9
74,80:9
75,48:7
75,68:6
75,69:6
75,70:9
75,72:9
75,80:9
76,48:7
76,68:6
76,69:6
76,70:9
76,72:9
76,78:4
76,79:4
76,80:9
76,81:4
77,48:7
77,68:6
77,69:6
77,70:9
77,72:9
77,78:4
77,80:9
78,48:3
78,76:4
78,80:5
79,48:3
79,76:4
79,80:5
80,16:5
80,21:5
80,30:3
80,48:2
80,54:5
80,55:5
80,56:5
80,57:5
80,58:16
80,59:16
80,60:15
80,61:16
80,62:16
80,63:2
80,64:16
80,65:16
80,66:16
80,67:15
80,74:9
80,75:9
80,76:9
80,77:9
80,78:5
80,79:5
80,81:5
81,48:3
81,84:3
82,48:3
82,83:3
82,84:3
83,85:3
84,82:3
84,85:3
85,48:3
85,83:3
85,84:3
85,86:3

<setup times backward>
5,1:7
5,2:7
5,3:7
5,4:7
5,6:7
5,8:4
5,9:10
5,30:3
6,9:3
6,10:3
7,1:7
7,2:7
7,3:7
7,4:7
7,6:7
7,8:4
7,9:10
7,10:10
7,30:3
8,1:3
8,2:3
8,3:3
8,4:3
8,6:3
8,9:6
8,10:6
8,14:6
8,15:6
8,16:1
11,1:7
11,2:7
11,3:7
11,4:7
11,6:7
11,8:4
11,9:10
11,10:10
11,30:3
12,1:7
12,2:7
12,3:7
12,4:7
12,6:7
12,8:4
12,9:10
12,10:10
12,30:3
13,1:7
13,2:7
13,3:7
13,4:7
13,6:7
13,8:4
13,9:10
13,10:10
13,30:3
16,1:2
16,2:2
16,3:2
16,4:2
16,6:2
16,9:5
16,10:5
16,14:5
16,15:5
16,25:6
16,26:8
16,27:6
16,28:2
16,29:8
16,31:8
16,32:8
16,35:5
16,36:5
16,37:10
16,38:10
16,39:3
16,41:11
16,43:3
16,45:3
16,46:3
16,47:3
16,52:10
16,53:10
16,68:10
16,69:10
17,1:3
17,2:3
17,3:3
17,4:3
17,6:3
17,9:6
17,10:6
17,14:6
17,15:6
17,16:1
18,1:3
18,2:3
18,3:3
18,4:3
18,6:3
18,9:6
18,10:6
18,14:6
18,15:6
18,16:1
19,1:3
19,2:3
19,3:3
19,4:3
19,6:3
19,9:6
19,10:6
19,14:6
19,15:6
19,16:1
19,20:1
19,21:1
19,28:3
19,54:1
19,55:1
19,56:1
19,57:1
19,58:12
19,59:12
19,60:11
19,61:12
19,62:12
19,64:12
19,65:12
19,66:12
19,67:11
20,1:2
20,2:2
20,3:2
20,4:2
20,6:2
20,9:5
20,10:5
20,14:5
20,15:5
20,25:6
20,26:8
20,27:6
21,1:2
21,2:2
21,3:2
21,4:2
21,6:2
21,9:5
21,10:5
21,14:5
21,15:5
21,25:6
21,26:8
21,27:6
21,28:2
21,29:8
21,31:8
21,32:8
21,35:5
21,36:5
21,37:10
21,38:10
21,39:3
21,41:11
21,43:3
21,45:3
21,46:3
21,47:3
21,52:10
21,53:10
21,68:10
21,69:10
22,1:2
22,2:2
22,3:2
22,4:2
22,6:2
22,9:5
22,10:5
22,14:5
22,15:5
22,28:2
22,58:11
22,59:11
22,60:10
22,61:11
22,62:11
22,64:11
22,65:11
22,66:11
22,67:10
23,1:2
23,2:2
23,3:2
23,4:2
23,6:2
23,9:5
23,10:5
23,14:5
23,15:5
23,28:2
23,58:11
23,59:11
23,60:10
23,61:11
23,62:11
23,64:11
23,65:11
23,66:11
23,67:10
24,1:2
24,2:2
24,3:2
24,4:2
24,6:2
24,9:5
24,10:5
24,14:5
24,15:5
24,28:2
24,58:11
24,59:11
24,60:10
24,61:11
24,62:11
24,64:11
24,65:11
24,66:11
24,67:10
25,58:5
25,59:5
25,60:4
25,61:5
25,62:5
25,64:5
25,65:5
25,66:5
25,67:4
26,58:3
26,59:3
26,60:2
26,61:3
26,62:3
26,64:3
26,65:3
26,66:3
26,67:2
27,26:2
27,29:2
27,31:2
27,32:2
27,58:5
27,59:5
27,60:4
27,61:5
27,62:5
27,64:5
27,65:5
27,66:5
27,67:4
28,9:3
28,10:3
28,14:3
28,15:3
28,25:4
28,26:6
28,27:4
28,58:9
28,59:9
28,60:8
28,61:9
28,62:9
28,64:9
28,65:9
28,66:9
28,67:8
29,58:3
29,59:3
29,60:2
29,61:3
29,62:3
29,64:3
29,65:3
29,66:3
29,67:2
30,1:4
30,2:4
30,3:4
30,4:4
30,6:4
30,8:1
30,9:7
30,10:7
30,14:7
30,15:7
30,16:2
30,17:1
30,18:1
30,19:1
30,20:2
30,21:2
30,22:2
30,23:2
30,24:2
30,25:8
30,26:10
30,27:8
30,28:4
30,29:10
30,31:10
30,32:10
30,35:7
30,36:7
30,37:12
30,38:12
30,39:5
30,40:2
30,41:13
30,43:5
30,44:2
30,45:5
30,46:5
30,47:5
30,52:12
30,53:12
30,68:12
30,69:12
31,58:3
31,59:3
31,60:2
31,61:3
31,62:3
31,64:3
31,65:3
31,66:3
31,67:2
32,58:3
32,59:3
32,60:2
32,61:3
32,62:3
32,64:3
32,65:3
32,66:3
32,67:2
33,1:4
33,2:4
33,3:4
33,4:4
33,6:4
33,8:1
33,9:7
33,10:7
33,14:7
33,15:7
33,16:2
33,17:1
33,18:1
33,19:1
33,20:2
33,21:2
33,22:2
33,23:2
33,24:2
33,25:8
33,26:10
33,27:8
33,28:4
33,29:10
33,31:10
33,32:10
33,54:2
33,55:2
33,56:2
33,57:2
33,58:13
33,59:13
33,60:12
33,61:13
33,62:13
33,64:13
33,65:13
33,66:13
33,67:12
34,1:4
34,2:4
34,3:4
34,4:4
34,6:4
34,8:1
34,9:7
34,10:7
34,14:7
34,15:7
34,16:2
34,17:1
34,18:1
34,19:1
34,20:2
34,21:2
34,22:2
34,23:2
34,24:2
34,25:8
34,26:10
34,27:8
34,28:4
34,29:10
34,31:10
34,32:10
34,54:2
34,55:2
34,56:2
34,57:2
34,58:13
34,59:13
34,60:12
34,61:13
34,62:13
34,64:13
34,65:13
34,66:13
34,67:12
35,25:1
35,26:3
35,27:1
35,29:3
35,31:3
35,32:3
35,58:6
35,59:6
35,60:5
35,61:6
35,62:6
35,64:6
35,65:6
35,66:6
35,67:5
36,25:1
36,26:3
36,27:1
36,29:3
36,31:3
36,32:3
36,37:5
36,58:6
36,59:6
36,60:5
36,61:6
36,62:6
36,64:6
36,65:6
36,66:6
36,67:5
37,58:1
37,59:1
37,61:1
37,62:1
37,64:1
37,65:1
37,66:1
38,58:1
38,59:1
38,61:1
38,62:1
38,64:1
38,65:1
38,66:1
39,9:2
39,10:2
39,14:2
39,15:2
39,25:3
39,26:5
39,27:3
39,29:5
39,31:5
39,32:5
39,35:2
39,36:2
39,37:7
39,38:7
39,58:8
39,59:8
39,60:7
39,61:8
39,62:8
39,64:8
39,65:8
39,66:8
39,67:7
40,1:2
40,2:2
40,3:2
40,4:2
40,6:2
40,9:5
40,10:5
40,14:5
40,15:5
40,25:6
40,26:8
40,27:6
40,28:2
40,29:8
40,31:8
40,32:8
40,35:5
40,36:5
40,37:10
40,38:10
40,39:3
40,41:11
40,43:3
40,45:3
40,46:3
40,47:3
40,58:11
40,59:11
40,60:10
40,61:11
40,62:11
40,64:11
40,65:11
40,66:11
40,67:10
42,1:5
42,2:5
42,3:5
42,4:5
42,6:5
42,8:2
42,9:8
42,10:8
42,14:8
42,15:8
42,16:3
42,17:2
42,18:2
42,19:2
42,20:3
42,21:3
42,22:3
42,23:3
42,24:3
42,25:9
42,26:11
42,27:9
42,28:5
42,29:11
42,30:1
42,31:11
42,32:11
42,33:1
42,34:1
42,35:8
42,36:8
42,37:13
42,38:13
42,39:6
42,40:3
42,41:14
42,43:6
42,44:3
42,45:6
42,46:6
42,47:6
42,52:13
42,54:3
42,55:3
42,56:3
42,57:3
42,58:14
42,59:14
42,60:13
42,61:14
42,62:14
42,64:14
42,65:14
42,66:14
42,67:13
43,9:2
43,10:2
43,14:2
43,15:2
43,25:3
43,26:5
43,27:3
43,29:5
43,31:5
43,32:5
43,35:2
43,36:2
43,37:7
43,38:7
43,41:8
43,58:8
43,59:8
43,60:7
43,61:8
43,62:8
43,64:8
43,65:8
43,66:8
43,67:7
44,1:2
44,2:2
44,3:2
44,4:2
44,6:2
44,9:5
44,10:5
44,14:5
44,15:5
44,25:6
44,26:8
44,27:6
44,28:2
44,29:8
44,31:8
44,32:8
44,35:5
44,36:5
44,37:10
44,38:10
44,39:3
44,41:11
44,43:3
44,45:3
44,46:3
44,47:3
44,58:11
44,59:11
44,60:10
44,61:11
44,62:11
44,64:11
44,65:11
44,66:11
44,67:10
45,9:2
45,10:2
45,14:2
45,15:2
45,25:3
45,26:5
45,27:3
45,29:5
45,31:5
45,32:5
45,35:2
45,36:2
45,37:7
45,38:7
45,41:8
45,58:8
45,59:8
45,60:7
45,61:8
45,62:8
45,64:8
45,65:8
45,66:8
45,67:7
46,9:2
46,10:2
46,14:2
46,15:2
46,25:3
46,26:5
46,27:3
46,29:5
46,31:5
46,32:5
46,35:2
46,36:2
46,37:7
46,38:7
46,41:8
46,58:8
46,59:8
46,60:7
46,61:8
46,62:8
46,64:8
46,65:8
46,66:8
46,67:7
47,9:2
47,10:2
47,14:2
47,15:2
47,25:3
47,26:5
47,27:3
47,29:5
47,31:5
47,32:5
47,35:2
47,36:2
47,37:7
47,38:7
47,41:8
47,58:8
47,59:8
47,60:7
47,61:8
47,62:8
47,64:8
47,65:8
47,66:8
47,67:7
48,1:5
48,2:5
48,3:5
48,4:5
48,6:5
48,8:2
48,9:8
48,10:8
48,14:8
48,15:8
48,16:3
48,17:2
48,18:2
48,19:2
48,20:3
48,21:3
48,22:3
48,23:3
48,24:3
48,25:9
48,26:11
48,27:9
48,28:5
48,29:11
48,30:1
48,31:11
48,32:11
48,33:1
48,34:1
48,35:8
48,36:8
48,37:13
48,38:13
48,39:6
48,40:3
48,41:14
48,43:6
48,44:3
48,45:6
48,46:6
48,47:6
48,52:13
48,53:13
48,54:3
48,55:3
48,56:3
48,57:3
48,58:14
48,59:14
48,60:13
48,61:14
48,62:14
48,64:14
48,65:14
48,66:14
48,67:13
48,68:13
48,69:13
48,74:7
48,75:7
48,76:7
48,77:7
48,78:3
48,79:3
48,81:3
48,82:3
48,85:3
49,1:5
49,2:5
49,3:5
49,4:5
49,6:5
49,8:2
49,9:8
49,10:8
49,14:8
49,15:8
49,16:3
49,17:2
49,18:2
49,19:2
49,20:3
49,21:3
49,22:3
49,23:3
49,24:3
49,25:9
49,26:11
49,27:9
49,28:5
49,29:11
49,30:1
49,31:11
49,32:11
49,33:1
49,34:1
49,35:8
49,36:8
49,37:13
49,38:13
49,39:6
49,40:3
49,41:14
49,43:6
49,44:3
49,45:6
49,46:6
49,47:6
49,54:3
49,55:3
49,56:3
49,57:3
49,58:14
49,59:14
49,60:13
49,61:14
49,62:14
49,64:14
49,65:14
49,66:14
49,67:13
50,1:5
50,2:5
50,3:5
50,4:5
50,6:5
50,8:2
50,9:8
50,10:8
50,14:8
50,15:8
50,16:3
50,17:2
50,18:2
50,19:2
50,20:3
50,21:3
50,22:3
50,23:3
50,24:3
50,25:9
50,26:11
50,27:9
50,28:5
50,29:11
50,30:1
50,31:11
50,32:11
50,33:1
50,34:1
50,35:8
50,36:8
50,37:13
50,38:13
50,39:6
50,40:3
50,41:14
50,43:6
50,44:3
50,45:6
50,46:6
50,47:6
50,54:3
50,55:3
50,56:3
50,57:3
50,58:14
50,59:14
50,60:13
50,61:14
50,62:14
50,64:14
50,65:14
50,66:14
50,67:13
51,1:5
51,2:5
51,3:5
51,4:5
51,6:5
51,8:2
51,9:8
51,10:8
51,14:8
51,15:8
51,16:3
51,17:2
51,18:2
51,19:2
51,20:3
51,21:3
51,22:3
51,23:3
51,24:3
51,25:9
51,26:11
51,27:9
51,28:5
51,29:11
51,30:1
51,31:11
51,32:11
51,33:1
51,34:1
51,35:8
51,36:8
51,37:13
51,38:13
51,39:6
51,40:3
51,41:14
51,43:6
51,44:3
51,45:6
51,46:6
51,47:6
51,54:3
51,55:3
51,56:3
51,57:3
51,58:14
51,59:14
51,60:13
51,61:14
51,62:14
51,64:14
51,65:14
51,66:14
51,67:13
52,41:1
52,58:1
52,59:1
52,61:1
52,62:1
52,64:1
52,65:1
52,66:1
53,41:1
53,58:1
53,59:1
53,61:1
53,62:1
53,64:1
53,65:1
53,66:1
54,1:2
54,2:2
54,3:2
54,4:2
54,6:2
54,9:5
54,10:5
54,14:5
54,15:5
54,25:6
54,26:8
54,27:6
54,28:2
54,29:8
54,31:8
54,32:8
54,35:5
54,36:5
54,37:10
54,38:10
54,39:3
54,41:11
54,43:3
54,45:3
54,46:3
54,47:3
54,52:10
54,53:10
54,68:10
54,69:10
55,1:2
55,2:2
55,3:2
55,4:2
55,6:2
55,9:5
55,10:5
55,14:5
55,15:5
55,25:6
55,26:8
55,27:6
55,28:2
55,29:8
55,31:8
55,32:8
55,35:5
55,36:5
55,37:10
55,38:10
55,39:3
55,41:11
55,43:3
55,45:3
55,46:3
55,47:3
55,52:10
55,53:10
55,68:10
55,69:10
56,1:2
56,2:2
56,3:2
56,4:2
56,6:2
56,9:5
56,10:5
56,14:5
56,15:5
56,25:6
56,26:8
56,27:6
56,28:2
56,29:8
56,31:8
56,32:8
56,35:5
56,36:5
56,37:10
56,38:10
56,39:3
56,41:11
56,43:3
56,45:3
56,46:3
56,47:3
56,52:10
56,53:10
56,68:10
56,69:10
57,1:2
57,2:2
57,3:2
57,4:2
57,6:2
57,9:5
57,10:5
57,14:5
57,15:5
57,25:6
57,26:8
57,27:6
57,28:2
57,29:8
57,31:8
57,32:8
57,35:5
57,36:5
57,37:10
57,38:10
57,39:3
57,41:11
57,43:3
57,45:3
57,46:3
57,47:3
57,52:10
57,53:10
57,68:10
57,69:10
60,41:1
60,58:1
60,59:1
60,61:1
60,62:1
60,64:1
60,65:1
60,66:1
63,1:5
63,2:5
63,3:5
63,4:5
63,6:5
63,8:2
63,9:8
63,10:8
63,14:8
63,15:8
63,16:3
63,17:2
63,18:2
63,19:2
63,20:3
63,21:3
63,22:3
63,23:3
63,24:3
63,25:9
63,26:11
63,27:9
63,28:5
63,29:11
63,30:1
63,31:11
63,32:11
63,33:1
63,34:1
63,35:8
63,36:8
63,37:13
63,38:13
63,39:6
63,40:3
63,41:14
63,43:6
63,44:3
63,45:6
63,46:6
63,47:6
63,52:13
63,53:13
63,54:3
63,55:3
63,56:3
63,57:3
63,58:14
63,59:14
63,60:13
63,61:14
63,62:14
63,64:14
63,65:14
63,66:14
63,68:13
63,69:13
67,41:1
67,58:1
67,59:1
67,61:1
67,62:1
67,64:1
67,65:1
67,66:1
68,41:1
68,58:1
68,59:1
68,61:1
68,62:1
68,64:1
68,65:1
68,66:1
69,41:1
69,58:1
69,59:1
69,61:1
69,62:1
69,64:1
69,65:1
69,66:1
70,1:7
70,2:7
70,3:7
70,4:7
70,6:7
70,8:4
70,9:10
70,10:10
70,14:10
70,15:10
70,16:5
70,17:4
70,18:4
70,19:4
70,20:5
70,21:5
70,22:5
70,23:5
70,24:5
70,25:11
70,26:13
70,27:11
70,28:7
70,29:13
70,30:3
70,31:13
70,32:13
70,33:3
70,34:3
70,35:10
70,36:10
70,37:15
70,38:15
70,39:8
70,40:5
70,41:16
70,42:2
70,43:8
70,44:5
70,45:8
70,46:8
70,47:8
70,48:2
70,49:2
70,50:2
70,51:2
70,52:15
70,53:15
70,54:5
70,55:5
70,56:5
70,57:5
70,58:16
70,59:16
70,60:15
70,61:16
70,62:16
70,63:2
70,64:16
70,65:16
70,66:16
70,67:15
70,68:15
70,69:15
70,74:9
70,75:9
70,76:9
70,77:9
71,1:7
71,2:7
71,3:7
71,4:7
71,6:7
71,8:4
71,9:10
71,10:10
71,14:10
71,15:10
71,16:5
71,17:4
71,18:4
71,19:4
71,20:5
71,21:5
71,22:5
71,23:5
71,24:5
71,25:11
71,26:13
71,27:11
71,28:7
71,29:13
71,30:3
71,31:13
71,32:13
71,33:3
71,34:3
71,35:10
71,36:10
71,37:15
71,38:15
71,39:8
71,40:5
71,41:16
71,42:2
71,43:8
71,44:5
71,45:8
71,46:8
71,47:8
71,48:2
71,49:2
71,50:2
71,51:2
71,52:15
71,53:15
71,54:5
71,55:5
71,56:5
71,57:5
71,58:16
71,59:16
71,60:15
71,61:16
71,62:16
71,63:2
71,64:16
71,65:16
71,66:16
71,67:15
71,68:15
71,69:15
72,1:7
72,2:7
72,3:7
72,4:7
72,6:7
72,8:4
72,9:10
72,10:10
72,14:10
72,15:10
72,16:5
72,17:4
72,18:4
72,19:4
72,20:5
72,21:5
72,22:5
72,23:5
72,24:5
72,25:11
72,26:13
72,27:11
72,28:7
72,29:13
72,30:3
72,31:13
72,32:13
72,33:3
72,34:3
72,35:10
72,36:10
72,37:15
72,38:15
72,39:8
72,40:5
72,41:16
72,42:2
72,43:8
72,44:5
72,45:8
72,46:8
72,47:8
72,48:2
72,49:2
72,50:2
72,51:2
72,52:15
72,53:15
72,54:5
72,55:5
72,56:5
72,57:5
72,58:16
72,59:16
72,60:15
72,61:16
72,62:16
72,63:2
72,64:16
72,65:16
72,66:16
72,67:15
72,68:15
72,69:15
72,74:9
72,75:9
72,76:9
72,77:9
73,1:7
73,2:7
73,3:7
73,4:7
73,6:7
73,8:4
73,9:10
73,10:10
73,14:10
73,15:10
73,16:5
73,17:4
73,18:4
73,19:4
73,20:5
73,21:5
73,22:5
73,23:5
73,24:5
73,25:11
73,26:13
73,27:11
73,28:7
73,29:13
73,30:3
73,31:13
73,32:13
73,33:3
73,34:3
73,35:10
73,36:10
73,37:15
73,38:15
73,39:8
73,40:5
73,41:16
73,42:2
73,43:8
73,44:5
73,45:8
73,46:8
73,47:8
73,48:2
73,49:2
73,50:2
73,51:2
73,52:15
73,53:15
73,54:5
73,55:5
73,56:5
73,57:5
73,58:16
73,59:16
73,60:15
73,61:16
73,62:16
73,63:2
73,64:16
73,65:16
73,66:16
73,67:15
73,68:15
73,69:15
74,9:1
74,10:1
74,14:1
74,15:1
74,25:2
74,26:4
74,27:2
74,29:4
74,31:4
74,32:4
74,35:1
74,36:1
74,37:6
74,38:6
74,41:7
74,52:6
74,53:6
74,58:7
74,59:7
74,60:6
74,61:7
74,62:7
74,64:7
74,65:7
74,66:7
74,67:6
74,68:6
74,69:6
75,9:1
75,10:1
75,14:1
75,15:1
75,25:2
75,26:4
75,27:2
75,29:4
75,31:4
75,32:4
75,35:1
75,36:1
75,37:6
75,38:6
75,41:7
75,52:6
75,53:6
75,58:7
75,59:7
75,60:6
75,61:7
75,62:7
75,64:7
75,65:7
75,66:7
75,67:6
75,68:6
75,69:6
76,9:1
76,10:1
76,14:1
76,15:1
76,25:2
76,26:4
76,27:2
76,29:4
76,31:4
76,32:4
76,35:1
76,36:1
76,37:6
76,38:6
76,41:7
76,52:6
76,53:6
76,58:7
76,59:7
76,60:6
76,61:7
76,62:7
76,64:7
76,65:7
76,66:7
76,67:6
76,68:6
76,69:6
77,9:1
77,10:1
77,14:1
77,15:1
77,25:2
77,26:4
77,27:2
77,29:4
77,31:4
77,32:4
77,35:1
77,36:1
77,37:6
77,38:6
77,41:7
77,52:6
77,53:6
77,58:7
77,59:7
77,60:6
77,61:7
77,62:7
77,64:7
77,65:7
77,66:7
77,67:6
77,68:6
77,69:6
78,1:2
78,2:2
78,3:2
78,4:2
78,6:2
78,9:5
78,10:5
78,14:5
78,15:5
78,25:6
78,26:8
78,27:6
78,28:2
78,29:8
78,31:8
78,32:8
78,35:5
78,36:5
78,37:10
78,38:10
78,39:3
78,41:11
78,43:3
78,45:3
78,46:3
78,47:3
78,52:10
78,53:10
78,58:11
78,59:11
78,60:10
78,61:11
78,62:11
78,64:11
78,65:11
78,66:11
78,67:10
78,68:10
78,69:10
78,74:4
78,75:4
78,76:4
78,77:4
79,1:2
79,2:2
79,3:2
79,4:2
79,6:2
79,9:5
79,10:5
79,14:5
79,15:5
79,25:6
79,26:8
79,27:6
79,28:2
79,29:8
79,31:8
79,32:8
79,35:5
79,36:5
79,37:10
79,38:10
79,39:3
79,41:11
79,43:3
79,45:3
79,46:3
79,47:3
79,52:10
79,53:10
79,58:11
79,59:11
79,60:10
79,61:11
79,62:11
79,64:11
79,65:11
79,66:11
79,67:10
79,68:10
79,69:10
79,74:4
79,75:4
79,76:4
79,77:4
80,1:7
80,2:7
80,3:7
80,4:7
80,6:7
80,8:4
80,9:10
80,10:10
80,14:10
80,15:10
80,16:5
80,17:4
80,18:4
80,19:4
80,20:5
80,21:5
80,22:5
80,23:5
80,24:5
80,25:11
80,26:13
80,27:11
80,28:7
80,29:13
80,30:3
80,31:13
80,32:13
80,33:3
80,34:3
80,35:10
80,36:10
80,37:15
80,38:15
80,39:8
80,40:5
80,41:16
80,42:2
80,43:8
80,44:5
80,45:8
80,46:8
80,47:8
80,48:2
80,49:2
80,50:2
80,51:2
80,52:15
80,53:15
80,54:5
80,55:5
80,56:5
80,57:5
80,58:16
80,59:16
80,60:15
80,61:16
80,62:16
80,63:2
80,64:16
80,65:16
80,66:16
80,67:15
80,68:15
80,69:15
80,74:9
80,75:9
80,76:9
80,77:9
80,78:5
80,79:5
81,1:2
81,2:2
81,3:2
81,4:2
81,6:2
81,9:5
81,10:5
81,14:5
81,15:5
81,25:6
81,26:8
81,27:6
81,28:2
81,29:8
81,31:8
81,32:8
81,35:5
81,36:5
81,37:10
81,38:10
81,39:3
81,41:11
81,43:3
81,45:3
81,46:3
81,47:3
81,52:10
81,53:10
81,58:11
81,59:11
81,60:10
81,61:11
81,62:11
81,64:11
81,65:11
81,66:11
81,67:10
81,68:10
81,69:10
81,74:4
81,75:4
81,76:4
81,77:4
82,1:2
82,2:2
82,3:2
82,4:2
82,6:2
82,9:5
82,10:5
82,14:5
82,15:5
82,25:6
82,26:8
82,27:6
82,28:2
82,29:8
82,31:8
82,32:8
82,35:5
82,36:5
82,37:10
82,38:10
82,39:3
82,41:11
82,43:3
82,45:3
82,46:3
82,47:3
82,52:10
82,53:10
82,58:11
82,59:11
82,60:10
82,61:11
82,62:11
82,64:11
82,65:11
82,66:11
82,67:10
82,68:10
82,69:10
82,74:4
82,75:4
82,76:4
82,77:4
83,1:5
83,2:5
83,3:5
83,4:5
83,6:5
83,8:2
83,9:8
83,10:8
83,14:8
83,15:8
83,16:3
83,17:2
83,18:2
83,19:2
83,20:3
83,21:3
83,22:3
83,23:3
83,24:3
83,25:9
83,26:11
83,27:9
83,28:5
83,29:11
83,30:1
83,31:11
83,32:11
83,33:1
83,34:1
83,35:8
83,36:8
83,37:13
83,38:13
83,39:6
83,40:3
83,41:14
83,43:6
83,44:3
83,45:6
83,46:6
83,47:6
83,52:13
83,53:13
83,54:3
83,55:3
83,56:3
83,57:3
83,58:14
83,59:14
83,60:13
83,61:14
83,62:14
83,64:14
83,65:14
83,66:14
83,67:13
83,68:13
83,69:13
83,74:7
83,75:7
83,76:7
83,77:7
83,78:3
83,79:3
83,81:3
83,82:3
83,85:3
84,1:5
84,2:5
84,3:5
84,4:5
84,6:5
84,8:2
84,9:8
84,10:8
84,14:8
84,15:8
84,16:3
84,17:2
84,18:2
84,19:2
84,20:3
84,21:3
84,22:3
84,23:3
84,24:3
84,25:9
84,26:11
84,27:9
84,28:5
84,29:11
84,30:1
84,31:11
84,32:11
84,33:1
84,34:1
84,35:8
84,36:8
84,37:13
84,38:13
84,39:6
84,40:3
84,41:14
84,43:6
84,44:3
84,45:6
84,46:6
84,47:6
84,52:13
84,53:13
84,54:3
84,55:3
84,56:3
84,57:3
84,58:14
84,59:14
84,60:13
84,61:14
84,62:14
84,64:14
84,65:14
84,66:14
84,67:13
84,68:13
84,69:13
84,74:7
84,75:7
84,76:7
84,77:7
84,78:3
84,79:3
84,81:3
84,82:3
84,85:3
85,1:2
85,2:2
85,3:2
85,4:2
85,6:2
85,9:5
85,10:5
85,14:5
85,15:5
85,25:6
85,26:8
85,27:6
85,28:2
85,29:8
85,31:8
85,32:8
85,35:5
85,36:5
85,37:10
85,38:10
85,39:3
85,41:11
85,43:3
85,45:3
85,46:3
85,47:3
85,52:10
85,53:10
85,58:11
85,59:11
85,60:10
85,61:11
85,62:11
85,64:11
85,65:11
85,66:11
85,67:10
85,68:10
85,69:10
85,74:4
85,75:4
85,76:4
85,77:4
86,1:5
86,2:5
86,3:5
86,4:5
86,6:5
86,8:2
86,9:8
86,10:8
86,14:8
86,15:8
86,16:3
86,17:2
86,18:2
86,19:2
86,20:3
86,21:3
86,22:3
86,23:3
86,24:3
86,25:9
86,26:11
86,27:9
86,28:5
86,29:11
86,30:1
86,31:11
86,32:11
86,33:1
86,34:1
86,35:8
86,36:8
86,37:13
86,38:13
86,39:6
86,40:3
86,41:14
86,43:6
86,44:3
86,45:6
86,46:6
86,47:6
86,52:13
86,53:13
86,54:3
86,55:3
86,56:3
86,57:3
86,58:14
86,59:14
86,60:13
86,61:14
86,62:14
86,64:14
86,65:14
86,66:14
86,67:13
86,68:13
86,69:13
86,74:7
86,75:7
86,76:7
86,77:7
86,78:3
86,79:3
86,81:3
86,82:3
86,85:3
87,1:5
87,2:5
87,3:5
87,4:5
87,6:5
87,8:2
87,9:8
87,10:8
87,14:8
87,15:8
87,16:3
87,17:2
87,18:2
87,19:2
87,20:3
87,21:3
87,22:3
87,23:3
87,24:3
87,25:9
87,26:11
87,27:9
87,28:5
87,29:11
87,30:1
87,31:11
87,32:11
87,33:1
87,34:1
87,35:8
87,36:8
87,37:13
87,38:13
87,39:6
87,40:3
87,41:14
87,43:6
87,44:3
87,45:6
87,46:6
87,47:6
87,52:13
87,53:13
87,54:3
87,55:3
87,56:3
87,57:3
87,58:14
87,59:14
87,60:13
87,61:14
87,62:14
87,64:14
87,65:14
87,66:14
87,67:13
87,68:13
87,69:13
87,74:7
87,75:7
87,76:7
87,77:7
87,78:3
87,79:3
87,81:3
87,82:3
87,85:3
88,1:5
88,2:5
88,3:5
88,4:5
88,6:5
88,8:2
88,9:8
88,10:8
88,14:8
88,15:8
88,16:3
88,17:2
88,18:2
88,19:2
88,20:3
88,21:3
88,22:3
88,23:3
88,24:3
88,25:9
88,26:11
88,27:9
88,28:5
88,29:11
88,30:1
88,31:11
88,32:11
88,33:1
88,34:1
88,35:8
88,36:8
88,37:13
88,38:13
88,39:6
88,40:3
88,41:14
88,43:6
88,44:3
88,45:6
88,46:6
88,47:6
88,52:13
88,53:13
88,54:3
88,55:3
88,56:3
88,57:3
88,58:14
88,59:14
88,60:13
88,61:14
88,62:14
88,64:14
88,65:14
88,66:14
88,67:13
88,68:13
88,69:13
88,74:7
88,75:7
88,76:7
88,77:7
88,78:3
88,79:3
88,81:3
88,82:3
88,85:3
89,1:5
89,2:5
89,3:5
89,4:5
89,6:5
89,8:2
89,9:8
89,10:8
89,14:8
89,15:8
89,16:3
89,17:2
89,18:2
89,19:2
89,20:3
89,21:3
89,22:3
89,23:3
89,24:3
89,25:9
89,26:11
89,27:9
89,28:5
89,29:11
89,30:1
89,31:11
89,32:11
89,33:1
89,34:1
89,35:8
89,36:8
89,37:13
89,38:13
89,39:6
89,40:3
89,41:14
89,43:6
89,44:3
89,45:6
89,46:6
89,47:6
89,52:13
89,53:13
89,54:3
89,55:3
89,56:3
89,57:3
89,58:14
89,59:14
89,60:13
89,61:14
89,62:14
89,64:14
89,65:14
89,66:14
89,67:13
89,68:13
89,69:13
89,74:7
89,75:7
89,76:7
89,77:7
89,78:3
89,79:3
89,81:3
89,82:3
89,85:3

<end>

<optimal SALBP-1 value>
21


<rand seed>
467321153

